c   nvars nclauses
p cnf 17 45
c u0 u1 u2 u3 u4 u5 u6 u7 u8 u9 u10 u11 u12 u13 u14 u15 u16 
c 1  2  3   4  5  6  7  8  9 10  11  12  13  14  15  16  17
4 5 0
-4 -5 0
3 17 0
-3 -17 0
5 -6 0
17 -6 0
2 -6 0
-5 -17 -2 6 0
-6 7 0
-4 7 0
6 4 -7 0
4 10 0
3 10 0
-4 -3 -10 0
4 11 0
2 11 0
-4 -2 -11 0
4 12 0
1 12 0
-4 -1 -12 0
3 13 0
2 13 0
-3 -2 -13 0
3 14 0
1 14 0
-3 -1 -14 0
2 15 0
1 15 0
-2 -1 -15 0
9 -16 0
10 -16 0
11 -16 0
12 -16 0
13 -16 0
14 -16 0
15 -16 0
-9 -10 -11 -12 -13 -14 -15 16 0
-2 8 0
-4 8 0
2 4 -8 0
7 8 -9 0
-7 8 9 0
-7 -8 -9 0
7 -8 9 0
16 0
